(set-logic QF_S)
(declare-fun var0 () String)
(assert (str.in.re var0 (re.++ (re.* (re.+ (str.to.re "0"))) (re.++ (re.union (re.+ (str.to.re "111")) (re.+ (str.to.re "2"))) (re.++ (re.* (re.union (str.to.re "33") (str.to.re "444"))) (re.++ (re.+ (re.* (str.to.re "55"))) (re.++ (re.+ (re.+ (str.to.re "6"))) (re.++ (re.+ (re.+ (str.to.re "77"))) (re.++ (re.union (re.union (str.to.re "8") (str.to.re "9")) (re.union (str.to.re "a") (str.to.re "b"))) (re.++ (re.+ (re.union (str.to.re "cc") (str.to.re "dd"))) (re.++ (re.+ (re.* (str.to.re "eee"))) (re.++ (re.+ (re.union (str.to.re "fff") (str.to.re "ggg"))) (re.++ (re.union (re.+ (str.to.re "hhh")) (re.+ (str.to.re "iii"))) (re.++ (re.* (re.+ (str.to.re "j"))) (re.++ (re.* (re.union (str.to.re "kkk") (str.to.re "lll"))) (re.++ (re.+ (re.+ (str.to.re "mmm"))) (re.++ (re.union (re.union (str.to.re "nnn") (str.to.re "oo")) (re.union (str.to.re "p") (str.to.re "q"))) (re.++ (re.+ (re.union (str.to.re "rr") (str.to.re "sss"))) (re.++ (re.union (re.union (str.to.re "t") (str.to.re "u")) (re.union (str.to.re "v") (str.to.re "ww"))) (re.++ (re.union (re.* (str.to.re "xx")) (re.* (str.to.re "yy"))) (re.++ (re.union (re.union (str.to.re "z") (str.to.re "AAA")) (re.union (str.to.re "B") (str.to.re "C"))) (re.++ (re.+ (re.+ (str.to.re "D"))) (re.++ (re.union (re.* (str.to.re "EE")) (re.* (str.to.re "FFF"))) (re.* (re.* (str.to.re "G"))))))))))))))))))))))))))
(check-sat)